NAME : ct_6_n_3_k10_t_99
COMMENT : (ct_6_n_3_k10_t_99, Min no of trucks: 3, Optimal value: 91.6895044569226, Split: Yes)
TYPE : SDVRP
DIMENSION : 7
EDGE_WEIGHT_TYPE : EUC_2D
CAPACITY : 10
NODE_COORD_SECTION
1 0 0
2 2 4
3 8 1
4 -1 -10
5 -5 -6
6 -7 5
7 10 -6
DEMAND_SECTION
1 0
2 5.0
3 6.2
4 3.8
5 3.3
6 4.6
7 6.8
DEPOT_SECTION
 1
EOF